\ Model S-OCT Benders
\ LP format - for model browsing. Use MPS format to capture full model detail.
Maximize
  C264 + C265 + C266 + C267 + C268 + C269 + C270 + C271 + C272 + C273 + C274
   + C275 + C276 + C277 + C278 + C279 + C280 + C281 + C282 + C283 + C284
   + C285 + C286 + C287 + C288 + C289 + C290 + C291 + C292 + C293 + C294
   + C295 + C296 + C297 + C298 + C299 + C300 + C301 + C302 + C303 + C304
   + C305 + C306 + C307 + C308 + C309 + C310 + C311 + C312 + C313 + C314
   + C315 + C316 + C317 + C318 + C319 + C320 + C321 + C322 + C323 + C324
   + C325 + C326 + C327 + C328 + C329 + C330 + C331 + C332 + C333 + C334
   + C335 + C336 + C337 + C338 + C339 + C340 + C341 + C342 + C343 + C344
   + C345 + C346 + C347 + C348 + C349 + C350 + C351 + C352 + C353 + C354
   + C355 + C356 + C357 + C358 + C359 + C360 + C361 + C362 + C363 + C364
   + C365 + C366 + C367 + C368 + C369 + C370 + C371 + C372 + C373 + C374
   + C375 + C376 + C377 + C378 + C379 + C380 + C381 + C382 + C383 + C384
   + C385 + C386 + C387 + C388 + C389 + C390 + C391 + C392 + C393 + C394
   + C395 + C396 + C397 + C398 + C399 + C400 + C401 + C402 + C403
Subject To
 R0: C19 = 1
 R1: C26 = 1
 R2: C33 = 1
 R3: C40 = 1
 R4: C47 = 1
 R5: C54 = 1
 R6: C61 = 1
 R7: C68 = 1
 R8: C75 = 1
 R9: C82 = 1
 R10: C89 = 1
 R11: C96 = 1
 R12: C103 = 1
 R13: C110 = 1
 R14: C117 = 1
 R15: C124 = 1
 R16: C131 = 1
 R17: C138 = 1
 R18: C145 = 1
 R19: C152 = 1
 R20: C159 = 1
 R21: C166 = 1
 R22: C173 = 1
 R23: C180 = 1
 R24: C187 = 1
 R25: C194 = 1
 R26: C201 = 1
 R27: C208 = 1
 R28: C215 = 1
 R29: C222 = 1
 R30: C229 = 1
 R31: C236 = 1
 R32: C243 = 1
 R33: C250 = 1
 R34: C257 = 1
 R35: C19 - C20 - C21 = 0
 R36: C20 - C22 - C23 = 0
 R37: C21 - C24 - C25 = 0
 R38: C26 - C27 - C28 = 0
 R39: C27 - C29 - C30 = 0
 R40: C28 - C31 - C32 = 0
 R41: C33 - C34 - C35 = 0
 R42: C34 - C36 - C37 = 0
 R43: C35 - C38 - C39 = 0
 R44: C40 - C41 - C42 = 0
 R45: C41 - C43 - C44 = 0
 R46: C42 - C45 - C46 = 0
 R47: C47 - C48 - C49 = 0
 R48: C48 - C50 - C51 = 0
 R49: C49 - C52 - C53 = 0
 R50: C54 - C55 - C56 = 0
 R51: C55 - C57 - C58 = 0
 R52: C56 - C59 - C60 = 0
 R53: C61 - C62 - C63 = 0
 R54: C62 - C64 - C65 = 0
 R55: C63 - C66 - C67 = 0
 R56: C68 - C69 - C70 = 0
 R57: C69 - C71 - C72 = 0
 R58: C70 - C73 - C74 = 0
 R59: C75 - C76 - C77 = 0
 R60: C76 - C78 - C79 = 0
 R61: C77 - C80 - C81 = 0
 R62: C82 - C83 - C84 = 0
 R63: C83 - C85 - C86 = 0
 R64: C84 - C87 - C88 = 0
 R65: C89 - C90 - C91 = 0
 R66: C90 - C92 - C93 = 0
 R67: C91 - C94 - C95 = 0
 R68: C96 - C97 - C98 = 0
 R69: C97 - C99 - C100 = 0
 R70: C98 - C101 - C102 = 0
 R71: C103 - C104 - C105 = 0
 R72: C104 - C106 - C107 = 0
 R73: C105 - C108 - C109 = 0
 R74: C110 - C111 - C112 = 0
 R75: C111 - C113 - C114 = 0
 R76: C112 - C115 - C116 = 0
 R77: C117 - C118 - C119 = 0
 R78: C118 - C120 - C121 = 0
 R79: C119 - C122 - C123 = 0
 R80: C124 - C125 - C126 = 0
 R81: C125 - C127 - C128 = 0
 R82: C126 - C129 - C130 = 0
 R83: C131 - C132 - C133 = 0
 R84: C132 - C134 - C135 = 0
 R85: C133 - C136 - C137 = 0
 R86: C138 - C139 - C140 = 0
 R87: C139 - C141 - C142 = 0
 R88: C140 - C143 - C144 = 0
 R89: C145 - C146 - C147 = 0
 R90: C146 - C148 - C149 = 0
 R91: C147 - C150 - C151 = 0
 R92: C152 - C153 - C154 = 0
 R93: C153 - C155 - C156 = 0
 R94: C154 - C157 - C158 = 0
 R95: C159 - C160 - C161 = 0
 R96: C160 - C162 - C163 = 0
 R97: C161 - C164 - C165 = 0
 R98: C166 - C167 - C168 = 0
 R99: C167 - C169 - C170 = 0
 R100: C168 - C171 - C172 = 0
 R101: C173 - C174 - C175 = 0
 R102: C174 - C176 - C177 = 0
 R103: C175 - C178 - C179 = 0
 R104: C180 - C181 - C182 = 0
 R105: C181 - C183 - C184 = 0
 R106: C182 - C185 - C186 = 0
 R107: C187 - C188 - C189 = 0
 R108: C188 - C190 - C191 = 0
 R109: C189 - C192 - C193 = 0
 R110: C194 - C195 - C196 = 0
 R111: C195 - C197 - C198 = 0
 R112: C196 - C199 - C200 = 0
 R113: C201 - C202 - C203 = 0
 R114: C202 - C204 - C205 = 0
 R115: C203 - C206 - C207 = 0
 R116: C208 - C209 - C210 = 0
 R117: C209 - C211 - C212 = 0
 R118: C210 - C213 - C214 = 0
 R119: C215 - C216 - C217 = 0
 R120: C216 - C218 - C219 = 0
 R121: C217 - C220 - C221 = 0
 R122: C222 - C223 - C224 = 0
 R123: C223 - C225 - C226 = 0
 R124: C224 - C227 - C228 = 0
 R125: C229 - C230 - C231 = 0
 R126: C230 - C232 - C233 = 0
 R127: C231 - C234 - C235 = 0
 R128: C236 - C237 - C238 = 0
 R129: C237 - C239 - C240 = 0
 R130: C238 - C241 - C242 = 0
 R131: C243 - C244 - C245 = 0
 R132: C244 - C246 - C247 = 0
 R133: C245 - C248 - C249 = 0
 R134: C250 - C251 - C252 = 0
 R135: C251 - C253 - C254 = 0
 R136: C252 - C255 - C256 = 0
 R137: C257 - C258 - C259 = 0
 R138: C258 - C260 - C261 = 0
 R139: C259 - C262 - C263 = 0
 R140: C16 - C21 >= 0
 R141: C17 - C23 >= 0
 R142: C18 - C25 >= 0
 R143: C16 - C28 >= 0
 R144: C17 - C30 >= 0
 R145: C18 - C32 >= 0
 R146: C16 - C35 >= 0
 R147: C17 - C37 >= 0
 R148: C18 - C39 >= 0
 R149: C16 - C42 >= 0
 R150: C17 - C44 >= 0
 R151: C18 - C46 >= 0
 R152: C16 - C49 >= 0
 R153: C17 - C51 >= 0
 R154: C18 - C53 >= 0
 R155: C16 - C56 >= 0
 R156: C17 - C58 >= 0
 R157: C18 - C60 >= 0
 R158: C16 - C63 >= 0
 R159: C17 - C65 >= 0
 R160: C18 - C67 >= 0
 R161: C16 - C70 >= 0
 R162: C17 - C72 >= 0
 R163: C18 - C74 >= 0
 R164: C16 - C77 >= 0
 R165: C17 - C79 >= 0
 R166: C18 - C81 >= 0
 R167: C16 - C84 >= 0
 R168: C17 - C86 >= 0
 R169: C18 - C88 >= 0
 R170: C16 - C91 >= 0
 R171: C17 - C93 >= 0
 R172: C18 - C95 >= 0
 R173: C16 - C98 >= 0
 R174: C17 - C100 >= 0
 R175: C18 - C102 >= 0
 R176: C16 - C105 >= 0
 R177: C17 - C107 >= 0
 R178: C18 - C109 >= 0
 R179: C16 - C112 >= 0
 R180: C17 - C114 >= 0
 R181: C18 - C116 >= 0
 R182: C16 - C119 >= 0
 R183: C17 - C121 >= 0
 R184: C18 - C123 >= 0
 R185: C16 - C126 >= 0
 R186: C17 - C128 >= 0
 R187: C18 - C130 >= 0
 R188: C16 - C133 >= 0
 R189: C17 - C135 >= 0
 R190: C18 - C137 >= 0
 R191: C16 - C140 >= 0
 R192: C17 - C142 >= 0
 R193: C18 - C144 >= 0
 R194: C16 - C147 >= 0
 R195: C17 - C149 >= 0
 R196: C18 - C151 >= 0
 R197: C16 - C154 >= 0
 R198: C17 - C156 >= 0
 R199: C18 - C158 >= 0
 R200: C16 - C161 >= 0
 R201: C17 - C163 >= 0
 R202: C18 - C165 >= 0
 R203: C16 - C168 >= 0
 R204: C17 - C170 >= 0
 R205: C18 - C172 >= 0
 R206: C16 - C175 >= 0
 R207: C17 - C177 >= 0
 R208: C18 - C179 >= 0
 R209: C16 - C182 >= 0
 R210: C17 - C184 >= 0
 R211: C18 - C186 >= 0
 R212: C16 - C189 >= 0
 R213: C17 - C191 >= 0
 R214: C18 - C193 >= 0
 R215: C16 - C196 >= 0
 R216: C17 - C198 >= 0
 R217: C18 - C200 >= 0
 R218: C16 - C203 >= 0
 R219: C17 - C205 >= 0
 R220: C18 - C207 >= 0
 R221: C16 - C210 >= 0
 R222: C17 - C212 >= 0
 R223: C18 - C214 >= 0
 R224: C16 - C217 >= 0
 R225: C17 - C219 >= 0
 R226: C18 - C221 >= 0
 R227: C16 - C224 >= 0
 R228: C17 - C226 >= 0
 R229: C18 - C228 >= 0
 R230: C16 - C231 >= 0
 R231: C17 - C233 >= 0
 R232: C18 - C235 >= 0
 R233: C16 - C238 >= 0
 R234: C17 - C240 >= 0
 R235: C18 - C242 >= 0
 R236: C16 - C245 >= 0
 R237: C17 - C247 >= 0
 R238: C18 - C249 >= 0
 R239: C16 - C252 >= 0
 R240: C17 - C254 >= 0
 R241: C18 - C256 >= 0
 R242: C16 - C259 >= 0
 R243: C17 - C261 >= 0
 R244: C18 - C263 >= 0
 R245: C0 + C4 + C8 + C12 = 1
 R246: C1 + C5 + C9 + C13 = 1
 R247: C2 + C6 + C10 + C14 = 1
 R248: C3 + C7 + C11 + C15 = 1
 R249: - C22 + C264 <= 0
 R250: - C23 + C265 <= 0
 R251: - C24 + C266 <= 0
 R252: - C25 + C267 <= 0
 R253: - C29 + C268 <= 0
 R254: - C30 + C269 <= 0
 R255: - C31 + C270 <= 0
 R256: - C32 + C271 <= 0
 R257: - C36 + C272 <= 0
 R258: - C37 + C273 <= 0
 R259: - C38 + C274 <= 0
 R260: - C39 + C275 <= 0
 R261: - C43 + C276 <= 0
 R262: - C44 + C277 <= 0
 R263: - C45 + C278 <= 0
 R264: - C46 + C279 <= 0
 R265: - C50 + C280 <= 0
 R266: - C51 + C281 <= 0
 R267: - C52 + C282 <= 0
 R268: - C53 + C283 <= 0
 R269: - C57 + C284 <= 0
 R270: - C58 + C285 <= 0
 R271: - C59 + C286 <= 0
 R272: - C60 + C287 <= 0
 R273: - C64 + C288 <= 0
 R274: - C65 + C289 <= 0
 R275: - C66 + C290 <= 0
 R276: - C67 + C291 <= 0
 R277: - C71 + C292 <= 0
 R278: - C72 + C293 <= 0
 R279: - C73 + C294 <= 0
 R280: - C74 + C295 <= 0
 R281: - C78 + C296 <= 0
 R282: - C79 + C297 <= 0
 R283: - C80 + C298 <= 0
 R284: - C81 + C299 <= 0
 R285: - C85 + C300 <= 0
 R286: - C86 + C301 <= 0
 R287: - C87 + C302 <= 0
 R288: - C88 + C303 <= 0
 R289: - C92 + C304 <= 0
 R290: - C93 + C305 <= 0
 R291: - C94 + C306 <= 0
 R292: - C95 + C307 <= 0
 R293: - C99 + C308 <= 0
 R294: - C100 + C309 <= 0
 R295: - C101 + C310 <= 0
 R296: - C102 + C311 <= 0
 R297: - C106 + C312 <= 0
 R298: - C107 + C313 <= 0
 R299: - C108 + C314 <= 0
 R300: - C109 + C315 <= 0
 R301: - C113 + C316 <= 0
 R302: - C114 + C317 <= 0
 R303: - C115 + C318 <= 0
 R304: - C116 + C319 <= 0
 R305: - C120 + C320 <= 0
 R306: - C121 + C321 <= 0
 R307: - C122 + C322 <= 0
 R308: - C123 + C323 <= 0
 R309: - C127 + C324 <= 0
 R310: - C128 + C325 <= 0
 R311: - C129 + C326 <= 0
 R312: - C130 + C327 <= 0
 R313: - C134 + C328 <= 0
 R314: - C135 + C329 <= 0
 R315: - C136 + C330 <= 0
 R316: - C137 + C331 <= 0
 R317: - C141 + C332 <= 0
 R318: - C142 + C333 <= 0
 R319: - C143 + C334 <= 0
 R320: - C144 + C335 <= 0
 R321: - C148 + C336 <= 0
 R322: - C149 + C337 <= 0
 R323: - C150 + C338 <= 0
 R324: - C151 + C339 <= 0
 R325: - C155 + C340 <= 0
 R326: - C156 + C341 <= 0
 R327: - C157 + C342 <= 0
 R328: - C158 + C343 <= 0
 R329: - C162 + C344 <= 0
 R330: - C163 + C345 <= 0
 R331: - C164 + C346 <= 0
 R332: - C165 + C347 <= 0
 R333: - C169 + C348 <= 0
 R334: - C170 + C349 <= 0
 R335: - C171 + C350 <= 0
 R336: - C172 + C351 <= 0
 R337: - C176 + C352 <= 0
 R338: - C177 + C353 <= 0
 R339: - C178 + C354 <= 0
 R340: - C179 + C355 <= 0
 R341: - C183 + C356 <= 0
 R342: - C184 + C357 <= 0
 R343: - C185 + C358 <= 0
 R344: - C186 + C359 <= 0
 R345: - C190 + C360 <= 0
 R346: - C191 + C361 <= 0
 R347: - C192 + C362 <= 0
 R348: - C193 + C363 <= 0
 R349: - C197 + C364 <= 0
 R350: - C198 + C365 <= 0
 R351: - C199 + C366 <= 0
 R352: - C200 + C367 <= 0
 R353: - C204 + C368 <= 0
 R354: - C205 + C369 <= 0
 R355: - C206 + C370 <= 0
 R356: - C207 + C371 <= 0
 R357: - C211 + C372 <= 0
 R358: - C212 + C373 <= 0
 R359: - C213 + C374 <= 0
 R360: - C214 + C375 <= 0
 R361: - C218 + C376 <= 0
 R362: - C219 + C377 <= 0
 R363: - C220 + C378 <= 0
 R364: - C221 + C379 <= 0
 R365: - C225 + C380 <= 0
 R366: - C226 + C381 <= 0
 R367: - C227 + C382 <= 0
 R368: - C228 + C383 <= 0
 R369: - C232 + C384 <= 0
 R370: - C233 + C385 <= 0
 R371: - C234 + C386 <= 0
 R372: - C235 + C387 <= 0
 R373: - C239 + C388 <= 0
 R374: - C240 + C389 <= 0
 R375: - C241 + C390 <= 0
 R376: - C242 + C391 <= 0
 R377: - C246 + C392 <= 0
 R378: - C247 + C393 <= 0
 R379: - C248 + C394 <= 0
 R380: - C249 + C395 <= 0
 R381: - C253 + C396 <= 0
 R382: - C254 + C397 <= 0
 R383: - C255 + C398 <= 0
 R384: - C256 + C399 <= 0
 R385: - C260 + C400 <= 0
 R386: - C261 + C401 <= 0
 R387: - C262 + C402 <= 0
 R388: - C263 + C403 <= 0
 R389: - C12 + C264 <= 0
 R390: - C13 + C265 <= 0
 R391: - C14 + C266 <= 0
 R392: - C15 + C267 <= 0
 R393: - C0 + C268 <= 0
 R394: - C1 + C269 <= 0
 R395: - C2 + C270 <= 0
 R396: - C3 + C271 <= 0
 R397: - C12 + C272 <= 0
 R398: - C13 + C273 <= 0
 R399: - C14 + C274 <= 0
 R400: - C15 + C275 <= 0
 R401: - C8 + C276 <= 0
 R402: - C9 + C277 <= 0
 R403: - C10 + C278 <= 0
 R404: - C11 + C279 <= 0
 R405: - C0 + C280 <= 0
 R406: - C1 + C281 <= 0
 R407: - C2 + C282 <= 0
 R408: - C3 + C283 <= 0
 R409: - C0 + C284 <= 0
 R410: - C1 + C285 <= 0
 R411: - C2 + C286 <= 0
 R412: - C3 + C287 <= 0
 R413: - C0 + C288 <= 0
 R414: - C1 + C289 <= 0
 R415: - C2 + C290 <= 0
 R416: - C3 + C291 <= 0
 R417: - C4 + C292 <= 0
 R418: - C5 + C293 <= 0
 R419: - C6 + C294 <= 0
 R420: - C7 + C295 <= 0
 R421: - C4 + C296 <= 0
 R422: - C5 + C297 <= 0
 R423: - C6 + C298 <= 0
 R424: - C7 + C299 <= 0
 R425: - C4 + C300 <= 0
 R426: - C5 + C301 <= 0
 R427: - C6 + C302 <= 0
 R428: - C7 + C303 <= 0
 R429: - C0 + C304 <= 0
 R430: - C1 + C305 <= 0
 R431: - C2 + C306 <= 0
 R432: - C3 + C307 <= 0
 R433: - C8 + C308 <= 0
 R434: - C9 + C309 <= 0
 R435: - C10 + C310 <= 0
 R436: - C11 + C311 <= 0
 R437: - C12 + C312 <= 0
 R438: - C13 + C313 <= 0
 R439: - C14 + C314 <= 0
 R440: - C15 + C315 <= 0
 R441: - C8 + C316 <= 0
 R442: - C9 + C317 <= 0
 R443: - C10 + C318 <= 0
 R444: - C11 + C319 <= 0
 R445: - C12 + C320 <= 0
 R446: - C13 + C321 <= 0
 R447: - C14 + C322 <= 0
 R448: - C15 + C323 <= 0
 R449: - C8 + C324 <= 0
 R450: - C9 + C325 <= 0
 R451: - C10 + C326 <= 0
 R452: - C11 + C327 <= 0
 R453: - C0 + C328 <= 0
 R454: - C1 + C329 <= 0
 R455: - C2 + C330 <= 0
 R456: - C3 + C331 <= 0
 R457: - C12 + C332 <= 0
 R458: - C13 + C333 <= 0
 R459: - C14 + C334 <= 0
 R460: - C15 + C335 <= 0
 R461: - C0 + C336 <= 0
 R462: - C1 + C337 <= 0
 R463: - C2 + C338 <= 0
 R464: - C3 + C339 <= 0
 R465: - C8 + C340 <= 0
 R466: - C9 + C341 <= 0
 R467: - C10 + C342 <= 0
 R468: - C11 + C343 <= 0
 R469: - C12 + C344 <= 0
 R470: - C13 + C345 <= 0
 R471: - C14 + C346 <= 0
 R472: - C15 + C347 <= 0
 R473: - C0 + C348 <= 0
 R474: - C1 + C349 <= 0
 R475: - C2 + C350 <= 0
 R476: - C3 + C351 <= 0
 R477: - C12 + C352 <= 0
 R478: - C13 + C353 <= 0
 R479: - C14 + C354 <= 0
 R480: - C15 + C355 <= 0
 R481: - C12 + C356 <= 0
 R482: - C13 + C357 <= 0
 R483: - C14 + C358 <= 0
 R484: - C15 + C359 <= 0
 R485: - C8 + C360 <= 0
 R486: - C9 + C361 <= 0
 R487: - C10 + C362 <= 0
 R488: - C11 + C363 <= 0
 R489: - C12 + C364 <= 0
 R490: - C13 + C365 <= 0
 R491: - C14 + C366 <= 0
 R492: - C15 + C367 <= 0
 R493: - C12 + C368 <= 0
 R494: - C13 + C369 <= 0
 R495: - C14 + C370 <= 0
 R496: - C15 + C371 <= 0
 R497: - C8 + C372 <= 0
 R498: - C9 + C373 <= 0
 R499: - C10 + C374 <= 0
 R500: - C11 + C375 <= 0
 R501: - C4 + C376 <= 0
 R502: - C5 + C377 <= 0
 R503: - C6 + C378 <= 0
 R504: - C7 + C379 <= 0
 R505: - C12 + C380 <= 0
 R506: - C13 + C381 <= 0
 R507: - C14 + C382 <= 0
 R508: - C15 + C383 <= 0
 R509: - C12 + C384 <= 0
 R510: - C13 + C385 <= 0
 R511: - C14 + C386 <= 0
 R512: - C15 + C387 <= 0
 R513: - C12 + C388 <= 0
 R514: - C13 + C389 <= 0
 R515: - C14 + C390 <= 0
 R516: - C15 + C391 <= 0
 R517: - C0 + C392 <= 0
 R518: - C1 + C393 <= 0
 R519: - C2 + C394 <= 0
 R520: - C3 + C395 <= 0
 R521: - C8 + C396 <= 0
 R522: - C9 + C397 <= 0
 R523: - C10 + C398 <= 0
 R524: - C11 + C399 <= 0
 R525: - C12 + C400 <= 0
 R526: - C13 + C401 <= 0
 R527: - C14 + C402 <= 0
 R528: - C15 + C403 <= 0
Bounds
 C0 <= 1
 C1 <= 1
 C2 <= 1
 C3 <= 1
 C4 <= 1
 C5 <= 1
 C6 <= 1
 C7 <= 1
 C8 <= 1
 C9 <= 1
 C10 <= 1
 C11 <= 1
 C12 <= 1
 C13 <= 1
 C14 <= 1
 C15 <= 1
 C16 <= 1
 C17 <= 1
 C18 <= 1
 C19 <= 1
 C20 <= 1
 C21 <= 1
 C26 <= 1
 C27 <= 1
 C28 <= 1
 C33 <= 1
 C34 <= 1
 C35 <= 1
 C40 <= 1
 C41 <= 1
 C42 <= 1
 C47 <= 1
 C48 <= 1
 C49 <= 1
 C54 <= 1
 C55 <= 1
 C56 <= 1
 C61 <= 1
 C62 <= 1
 C63 <= 1
 C68 <= 1
 C69 <= 1
 C70 <= 1
 C75 <= 1
 C76 <= 1
 C77 <= 1
 C82 <= 1
 C83 <= 1
 C84 <= 1
 C89 <= 1
 C90 <= 1
 C91 <= 1
 C96 <= 1
 C97 <= 1
 C98 <= 1
 C103 <= 1
 C104 <= 1
 C105 <= 1
 C110 <= 1
 C111 <= 1
 C112 <= 1
 C117 <= 1
 C118 <= 1
 C119 <= 1
 C124 <= 1
 C125 <= 1
 C126 <= 1
 C131 <= 1
 C132 <= 1
 C133 <= 1
 C138 <= 1
 C139 <= 1
 C140 <= 1
 C145 <= 1
 C146 <= 1
 C147 <= 1
 C152 <= 1
 C153 <= 1
 C154 <= 1
 C159 <= 1
 C160 <= 1
 C161 <= 1
 C166 <= 1
 C167 <= 1
 C168 <= 1
 C173 <= 1
 C174 <= 1
 C175 <= 1
 C180 <= 1
 C181 <= 1
 C182 <= 1
 C187 <= 1
 C188 <= 1
 C189 <= 1
 C194 <= 1
 C195 <= 1
 C196 <= 1
 C201 <= 1
 C202 <= 1
 C203 <= 1
 C208 <= 1
 C209 <= 1
 C210 <= 1
 C215 <= 1
 C216 <= 1
 C217 <= 1
 C222 <= 1
 C223 <= 1
 C224 <= 1
 C229 <= 1
 C230 <= 1
 C231 <= 1
 C236 <= 1
 C237 <= 1
 C238 <= 1
 C243 <= 1
 C244 <= 1
 C245 <= 1
 C250 <= 1
 C251 <= 1
 C252 <= 1
 C257 <= 1
 C258 <= 1
 C259 <= 1
 C264 <= 1
 C265 <= 1
 C266 <= 1
 C267 <= 1
 C268 <= 1
 C269 <= 1
 C270 <= 1
 C271 <= 1
 C272 <= 1
 C273 <= 1
 C274 <= 1
 C275 <= 1
 C276 <= 1
 C277 <= 1
 C278 <= 1
 C279 <= 1
 C280 <= 1
 C281 <= 1
 C282 <= 1
 C283 <= 1
 C284 <= 1
 C285 <= 1
 C286 <= 1
 C287 <= 1
 C288 <= 1
 C289 <= 1
 C290 <= 1
 C291 <= 1
 C292 <= 1
 C293 <= 1
 C294 <= 1
 C295 <= 1
 C296 <= 1
 C297 <= 1
 C298 <= 1
 C299 <= 1
 C300 <= 1
 C301 <= 1
 C302 <= 1
 C303 <= 1
 C304 <= 1
 C305 <= 1
 C306 <= 1
 C307 <= 1
 C308 <= 1
 C309 <= 1
 C310 <= 1
 C311 <= 1
 C312 <= 1
 C313 <= 1
 C314 <= 1
 C315 <= 1
 C316 <= 1
 C317 <= 1
 C318 <= 1
 C319 <= 1
 C320 <= 1
 C321 <= 1
 C322 <= 1
 C323 <= 1
 C324 <= 1
 C325 <= 1
 C326 <= 1
 C327 <= 1
 C328 <= 1
 C329 <= 1
 C330 <= 1
 C331 <= 1
 C332 <= 1
 C333 <= 1
 C334 <= 1
 C335 <= 1
 C336 <= 1
 C337 <= 1
 C338 <= 1
 C339 <= 1
 C340 <= 1
 C341 <= 1
 C342 <= 1
 C343 <= 1
 C344 <= 1
 C345 <= 1
 C346 <= 1
 C347 <= 1
 C348 <= 1
 C349 <= 1
 C350 <= 1
 C351 <= 1
 C352 <= 1
 C353 <= 1
 C354 <= 1
 C355 <= 1
 C356 <= 1
 C357 <= 1
 C358 <= 1
 C359 <= 1
 C360 <= 1
 C361 <= 1
 C362 <= 1
 C363 <= 1
 C364 <= 1
 C365 <= 1
 C366 <= 1
 C367 <= 1
 C368 <= 1
 C369 <= 1
 C370 <= 1
 C371 <= 1
 C372 <= 1
 C373 <= 1
 C374 <= 1
 C375 <= 1
 C376 <= 1
 C377 <= 1
 C378 <= 1
 C379 <= 1
 C380 <= 1
 C381 <= 1
 C382 <= 1
 C383 <= 1
 C384 <= 1
 C385 <= 1
 C386 <= 1
 C387 <= 1
 C388 <= 1
 C389 <= 1
 C390 <= 1
 C391 <= 1
 C392 <= 1
 C393 <= 1
 C394 <= 1
 C395 <= 1
 C396 <= 1
 C397 <= 1
 C398 <= 1
 C399 <= 1
 C400 <= 1
 C401 <= 1
 C402 <= 1
 C403 <= 1
Binaries
 C22 C23 C24 C25 C29 C30 C31 C32 C36 C37 C38 C39 C43 C44 C45 C46 C50 C51
 C52 C53 C57 C58 C59 C60 C64 C65 C66 C67 C71 C72 C73 C74 C78 C79 C80 C81
 C85 C86 C87 C88 C92 C93 C94 C95 C99 C100 C101 C102 C106 C107 C108 C109
 C113 C114 C115 C116 C120 C121 C122 C123 C127 C128 C129 C130 C134 C135 C136
 C137 C141 C142 C143 C144 C148 C149 C150 C151 C155 C156 C157 C158 C162 C163
 C164 C165 C169 C170 C171 C172 C176 C177 C178 C179 C183 C184 C185 C186 C190
 C191 C192 C193 C197 C198 C199 C200 C204 C205 C206 C207 C211 C212 C213 C214
 C218 C219 C220 C221 C225 C226 C227 C228 C232 C233 C234 C235 C239 C240 C241
 C242 C246 C247 C248 C249 C253 C254 C255 C256 C260 C261 C262 C263
End
